61
1 0 6
2 0 37
2 1 33
3 0 4
3 1 25
3 2 14
4 0 36
4 1 15
4 2 19
4 3 13
5 0 27
5 1 5
5 2 15
5 3 37
5 4 7
6 0 24
6 1 31
6 2 3
6 3 40
6 4 40
6 5 23
7 0 7
7 1 26
7 2 39
7 3 45
7 4 33
7 5 43
7 6 22
8 0 19
8 1 27
8 2 18
8 3 28
8 4 24
8 5 16
8 6 15
8 7 31
9 0 8
9 1 11
9 2 39
9 3 17
9 4 8
9 5 37
9 6 2
9 7 33
9 8 38
10 0 33
10 1 45
10 2 7
10 3 38
10 4 42
10 5 12
10 6 36
10 7 10
10 8 11
10 9 22
11 0 18
11 1 25
11 2 35
11 3 22
11 4 2
11 5 43
11 6 42
11 7 29
11 8 45
11 9 3
11 10 35
12 0 32
12 1 10
12 2 15
12 3 11
12 4 29
12 5 5
12 6 18
12 7 6
12 8 11
12 9 6
12 10 6
12 11 2
13 0 20
13 1 37
13 2 38
13 3 42
13 4 28
13 5 23
13 6 21
13 7 19
13 8 14
13 9 38
13 10 1
13 11 26
13 12 5
14 0 36
14 1 25
14 2 15
14 3 41
14 4 45
14 5 9
14 6 3
14 7 11
14 8 10
14 9 16
14 10 1
14 11 40
14 12 27
14 13 34
15 0 14
15 1 41
15 2 41
15 3 16
15 4 3
15 5 13
15 6 39
15 7 44
15 8 23
15 9 29
15 10 14
15 11 6
15 12 21
15 13 6
15 14 42
16 0 39
16 1 23
16 2 20
16 3 23
16 4 44
16 5 11
16 6 2
16 7 7
16 8 19
16 9 10
16 10 26
16 11 44
16 12 19
16 13 42
16 14 6
16 15 43
17 0 38
17 1 2
17 2 6
17 3 10
17 4 35
17 5 36
17 6 28
17 7 35
17 8 10
17 9 11
17 10 23
17 11 32
17 12 24
17 13 39
17 14 41
17 15 37
17 16 3
18 0 23
18 1 28
18 2 40
18 3 40
18 4 33
18 5 21
18 6 32
18 7 26
18 8 13
18 9 45
18 10 20
18 11 43
18 12 2
18 13 41
18 14 7
18 15 22
18 16 20
18 17 34
19 0 23
19 1 13
19 2 37
19 3 11
19 4 12
19 5 32
19 6 28
19 7 11
19 8 12
19 9 45
19 10 29
19 11 43
19 12 45
19 13 31
19 14 40
19 15 35
19 16 19
19 17 9
19 18 16
20 0 19
20 1 21
20 2 18
20 3 9
20 4 41
20 5 4
20 6 42
20 7 37
20 8 14
20 9 41
20 10 9
20 11 2
20 12 35
20 13 26
20 14 30
20 15 10
20 16 44
20 17 42
20 18 4
20 19 45
21 0 8
21 1 29
21 2 5
21 3 13
21 4 8
21 5 11
21 6 3
21 7 16
21 8 18
21 9 17
21 10 22
21 11 9
21 12 22
21 13 31
21 14 38
21 15 32
21 16 5
21 17 38
21 18 21
21 19 13
21 20 12
22 0 34
22 1 25
22 2 30
22 3 35
22 4 17
22 5 9
22 6 22
22 7 11
22 8 19
22 9 42
22 10 23
22 11 11
22 12 14
22 13 10
22 14 32
22 15 30
22 16 20
22 17 15
22 18 37
22 19 35
22 20 29
22 21 21
23 0 28
23 1 43
23 2 44
23 3 20
23 4 12
23 5 15
23 6 3
23 7 44
23 8 30
23 9 2
23 10 32
23 11 29
23 12 15
23 13 16
23 14 43
23 15 37
23 16 18
23 17 14
23 18 5
23 19 8
23 20 41
23 21 24
23 22 29
24 0 36
24 1 2
24 2 44
24 3 25
24 4 40
24 5 16
24 6 16
24 7 29
24 8 14
24 9 14
24 10 9
24 11 15
24 12 37
24 13 45
24 14 27
24 15 15
24 16 37
24 17 23
24 18 28
24 19 16
24 20 20
24 21 4
24 22 19
24 23 17
25 0 34
25 1 44
25 2 34
25 3 9
25 4 21
25 5 27
25 6 27
25 7 32
25 8 40
25 9 29
25 10 27
25 11 24
25 12 29
25 13 4
25 14 9
25 15 14
25 16 3
25 17 3
25 18 5
25 19 37
25 20 3
25 21 22
25 22 27
25 23 19
25 24 26
26 0 21
26 1 5
26 2 33
26 3 9
26 4 5
26 5 34
26 6 26
26 7 36
26 8 14
26 9 41
26 10 22
26 11 27
26 12 19
26 13 39
26 14 9
26 15 20
26 16 45
26 17 15
26 18 7
26 19 25
26 20 5
26 21 15
26 22 39
26 23 5
26 24 37
26 25 23
27 0 32
27 1 3
27 2 37
27 3 5
27 4 8
27 5 21
27 6 12
27 7 4
27 8 6
27 9 40
27 10 19
27 11 13
27 12 16
27 13 34
27 14 27
27 15 8
27 16 16
27 17 44
27 18 28
27 19 4
27 20 17
27 21 37
27 22 23
27 23 32
27 24 45
27 25 44
27 26 15
28 0 10
28 1 38
28 2 24
28 3 19
28 4 26
28 5 9
28 6 1
28 7 18
28 8 19
28 9 21
28 10 36
28 11 26
28 12 6
28 13 6
28 14 27
28 15 37
28 16 25
28 17 9
28 18 37
28 19 40
28 20 25
28 21 27
28 22 42
28 23 33
28 24 32
28 25 41
28 26 5
28 27 27
29 0 18
29 1 15
29 2 3
29 3 23
29 4 5
29 5 43
29 6 23
29 7 30
29 8 8
29 9 20
29 10 33
29 11 39
29 12 35
29 13 3
29 14 14
29 15 43
29 16 6
29 17 19
29 18 43
29 19 43
29 20 6
29 21 11
29 22 2
29 23 5
29 24 42
29 25 18
29 26 6
29 27 22
29 28 15
30 0 39
30 1 25
30 2 19
30 3 27
30 4 1
30 5 10
30 6 3
30 7 21
30 8 42
30 9 36
30 10 4
30 11 15
30 12 17
30 13 7
30 14 1
30 15 31
30 16 23
30 17 28
30 18 30
30 19 31
30 20 33
30 21 20
30 22 43
30 23 45
30 24 5
30 25 31
30 26 43
30 27 25
30 28 11
30 29 4
31 0 34
31 1 45
31 2 25
31 3 2
31 4 40
31 5 20
31 6 19
31 7 20
31 8 42
31 9 18
31 10 27
31 11 1
31 12 43
31 13 28
31 14 33
31 15 30
31 16 33
31 17 19
31 18 4
31 19 30
31 20 32
31 21 27
31 22 35
31 23 43
31 24 28
31 25 44
31 26 42
31 27 27
31 28 32
31 29 20
31 30 33
32 0 20
32 1 18
32 2 34
32 3 19
32 4 17
32 5 23
32 6 21
32 7 12
32 8 36
32 9 28
32 10 45
32 11 25
32 12 6
32 13 6
32 14 25
32 15 34
32 16 24
32 17 38
32 18 14
32 19 31
32 20 2
32 21 30
32 22 7
32 23 5
32 24 3
32 25 5
32 26 3
32 27 5
32 28 34
32 29 13
32 30 33
32 31 28
33 0 20
33 1 8
33 2 42
33 3 1
33 4 35
33 5 17
33 6 40
33 7 29
33 8 34
33 9 45
33 10 38
33 11 12
33 12 41
33 13 44
33 14 3
33 15 16
33 16 15
33 17 3
33 18 14
33 19 32
33 20 19
33 21 24
33 22 31
33 23 1
33 24 24
33 25 45
33 26 44
33 27 17
33 28 22
33 29 1
33 30 7
33 31 26
33 32 15
34 0 33
34 1 27
34 2 39
34 3 12
34 4 44
34 5 8
34 6 38
34 7 31
34 8 11
34 9 15
34 10 40
34 11 8
34 12 13
34 13 34
34 14 36
34 15 15
34 16 41
34 17 11
34 18 2
34 19 1
34 20 36
34 21 37
34 22 22
34 23 27
34 24 2
34 25 18
34 26 25
34 27 2
34 28 27
34 29 18
34 30 10
34 31 34
34 32 17
34 33 45
35 0 17
35 1 2
35 2 8
35 3 13
35 4 12
35 5 7
35 6 34
35 7 4
35 8 8
35 9 18
35 10 8
35 11 22
35 12 32
35 13 40
35 14 23
35 15 15
35 16 37
35 17 40
35 18 8
35 19 1
35 20 4
35 21 25
35 22 10
35 23 23
35 24 24
35 25 40
35 26 2
35 27 23
35 28 43
35 29 8
35 30 6
35 31 41
35 32 32
35 33 43
35 34 3
36 0 9
36 1 15
36 2 18
36 3 2
36 4 18
36 5 20
36 6 41
36 7 44
36 8 29
36 9 45
36 10 42
36 11 31
36 12 24
36 13 23
36 14 21
36 15 29
36 16 39
36 17 38
36 18 44
36 19 25
36 20 15
36 21 11
36 22 6
36 23 23
36 24 16
36 25 41
36 26 11
36 27 24
36 28 4
36 29 36
36 30 36
36 31 43
36 32 13
36 33 18
36 34 34
36 35 29
37 0 29
37 1 17
37 2 21
37 3 9
37 4 27
37 5 33
37 6 9
37 7 30
37 8 43
37 9 30
37 10 38
37 11 11
37 12 26
37 13 9
37 14 11
37 15 3
37 16 7
37 17 18
37 18 1
37 19 12
37 20 43
37 21 36
37 22 10
37 23 24
37 24 27
37 25 6
37 26 38
37 27 6
37 28 30
37 29 33
37 30 44
37 31 44
37 32 28
37 33 1
37 34 27
37 35 15
37 36 8
38 0 2
38 1 38
38 2 7
38 3 14
38 4 42
38 5 13
38 6 2
38 7 15
38 8 39
38 9 40
38 10 28
38 11 42
38 12 25
38 13 10
38 14 25
38 15 42
38 16 38
38 17 21
38 18 23
38 19 15
38 20 30
38 21 9
38 22 41
38 23 31
38 24 10
38 25 33
38 26 17
38 27 45
38 28 28
38 29 45
38 30 39
38 31 41
38 32 44
38 33 31
38 34 6
38 35 10
38 36 42
38 37 26
39 0 3
39 1 33
39 2 34
39 3 2
39 4 42
39 5 30
39 6 43
39 7 13
39 8 25
39 9 42
39 10 34
39 11 30
39 12 2
39 13 15
39 14 39
39 15 7
39 16 21
39 17 13
39 18 24
39 19 45
39 20 39
39 21 36
39 22 28
39 23 43
39 24 5
39 25 27
39 26 26
39 27 34
39 28 36
39 29 33
39 30 3
39 31 17
39 32 6
39 33 7
39 34 40
39 35 37
39 36 15
39 37 40
39 38 18
40 0 4
40 1 11
40 2 43
40 3 24
40 4 20
40 5 42
40 6 10
40 7 21
40 8 30
40 9 36
40 10 19
40 11 36
40 12 16
40 13 5
40 14 28
40 15 20
40 16 33
40 17 8
40 18 28
40 19 25
40 20 24
40 21 22
40 22 30
40 23 29
40 24 35
40 25 38
40 26 9
40 27 15
40 28 33
40 29 37
40 30 44
40 31 10
40 32 6
40 33 12
40 34 40
40 35 19
40 36 26
40 37 1
40 38 28
40 39 18
41 0 33
41 1 24
41 2 20
41 3 30
41 4 25
41 5 18
41 6 11
41 7 25
41 8 45
41 9 35
41 10 18
41 11 18
41 12 23
41 13 26
41 14 3
41 15 24
41 16 26
41 17 18
41 18 5
41 19 2
41 20 4
41 21 39
41 22 28
41 23 7
41 24 5
41 25 43
41 26 35
41 27 37
41 28 26
41 29 7
41 30 24
41 31 36
41 32 36
41 33 43
41 34 25
41 35 8
41 36 38
41 37 16
41 38 39
41 39 9
41 40 10
42 0 12
42 1 33
42 2 8
42 3 23
42 4 15
42 5 22
42 6 12
42 7 32
42 8 26
42 9 6
42 10 36
42 11 17
42 12 16
42 13 10
42 14 11
42 15 6
42 16 5
42 17 13
42 18 8
42 19 43
42 20 4
42 21 36
42 22 36
42 23 9
42 24 35
42 25 6
42 26 26
42 27 15
42 28 5
42 29 29
42 30 19
42 31 3
42 32 21
42 33 14
42 34 18
42 35 6
42 36 42
42 37 27
42 38 38
42 39 31
42 40 26
42 41 42
43 0 5
43 1 32
43 2 23
43 3 12
43 4 34
43 5 12
43 6 1
43 7 9
43 8 40
43 9 32
43 10 15
43 11 19
43 12 22
43 13 21
43 14 9
43 15 12
43 16 16
43 17 22
43 18 43
43 19 2
43 20 42
43 21 39
43 22 24
43 23 45
43 24 5
43 25 4
43 26 11
43 27 18
43 28 30
43 29 1
43 30 45
43 31 1
43 32 6
43 33 12
43 34 34
43 35 34
43 36 4
43 37 41
43 38 13
43 39 28
43 40 10
43 41 32
43 42 4
44 0 1
44 1 36
44 2 40
44 3 32
44 4 45
44 5 3
44 6 22
44 7 20
44 8 9
44 9 2
44 10 40
44 11 43
44 12 15
44 13 24
44 14 34
44 15 37
44 16 34
44 17 20
44 18 24
44 19 33
44 20 7
44 21 26
44 22 26
44 23 30
44 24 28
44 25 30
44 26 8
44 27 33
44 28 26
44 29 10
44 30 4
44 31 11
44 32 12
44 33 19
44 34 33
44 35 44
44 36 40
44 37 13
44 38 28
44 39 6
44 40 18
44 41 24
44 42 42
44 43 20
45 0 41
45 1 10
45 2 18
45 3 34
45 4 31
45 5 4
45 6 40
45 7 34
45 8 33
45 9 26
45 10 3
45 11 39
45 12 4
45 13 38
45 14 12
45 15 16
45 16 14
45 17 27
45 18 30
45 19 5
45 20 11
45 21 34
45 22 38
45 23 39
45 24 13
45 25 21
45 26 34
45 27 30
45 28 22
45 29 25
45 30 24
45 31 35
45 32 33
45 33 37
45 34 33
45 35 29
45 36 43
45 37 28
45 38 40
45 39 9
45 40 11
45 41 30
45 42 14
45 43 40
45 44 7
46 0 37
46 1 44
46 2 11
46 3 34
46 4 30
46 5 16
46 6 23
46 7 38
46 8 32
46 9 40
46 10 11
46 11 38
46 12 41
46 13 29
46 14 22
46 15 8
46 16 27
46 17 24
46 18 33
46 19 32
46 20 45
46 21 10
46 22 19
46 23 10
46 24 6
46 25 42
46 26 8
46 27 26
46 28 27
46 29 29
46 30 7
46 31 43
46 32 27
46 33 1
46 34 17
46 35 39
46 36 9
46 37 25
46 38 22
46 39 11
46 40 32
46 41 40
46 42 41
46 43 40
46 44 26
46 45 18
47 0 42
47 1 25
47 2 16
47 3 18
47 4 3
47 5 45
47 6 18
47 7 25
47 8 15
47 9 32
47 10 28
47 11 21
47 12 30
47 13 23
47 14 14
47 15 16
47 16 37
47 17 5
47 18 34
47 19 21
47 20 30
47 21 5
47 22 17
47 23 25
47 24 19
47 25 9
47 26 24
47 27 21
47 28 24
47 29 34
47 30 5
47 31 41
47 32 43
47 33 21
47 34 26
47 35 29
47 36 13
47 37 20
47 38 21
47 39 45
47 40 35
47 41 18
47 42 40
47 43 12
47 44 21
47 45 6
47 46 36
48 0 10
48 1 32
48 2 11
48 3 22
48 4 6
48 5 35
48 6 34
48 7 32
48 8 45
48 9 35
48 10 28
48 11 14
48 12 22
48 13 23
48 14 14
48 15 27
48 16 9
48 17 10
48 18 41
48 19 4
48 20 11
48 21 30
48 22 41
48 23 20
48 24 39
48 25 13
48 26 28
48 27 23
48 28 45
48 29 4
48 30 8
48 31 5
48 32 40
48 33 10
48 34 14
48 35 19
48 36 1
48 37 3
48 38 21
48 39 40
48 40 8
48 41 3
48 42 34
48 43 13
48 44 9
48 45 40
48 46 13
48 47 31
49 0 39
49 1 39
49 2 18
49 3 27
49 4 3
49 5 5
49 6 37
49 7 10
49 8 38
49 9 17
49 10 11
49 11 33
49 12 21
49 13 29
49 14 21
49 15 4
49 16 11
49 17 9
49 18 3
49 19 29
49 20 30
49 21 20
49 22 21
49 23 33
49 24 25
49 25 35
49 26 35
49 27 39
49 28 40
49 29 15
49 30 32
49 31 11
49 32 23
49 33 21
49 34 21
49 35 31
49 36 9
49 37 4
49 38 21
49 39 12
49 40 21
49 41 19
49 42 14
49 43 15
49 44 8
49 45 33
49 46 15
49 47 19
49 48 41
50 0 42
50 1 17
50 2 18
50 3 28
50 4 17
50 5 9
50 6 2
50 7 5
50 8 11
50 9 7
50 10 21
50 11 3
50 12 43
50 13 14
50 14 21
50 15 1
50 16 41
50 17 44
50 18 28
50 19 20
50 20 21
50 21 18
50 22 22
50 23 23
50 24 31
50 25 14
50 26 25
50 27 27
50 28 20
50 29 44
50 30 22
50 31 23
50 32 42
50 33 33
50 34 11
50 35 35
50 36 31
50 37 22
50 38 26
50 39 32
50 40 25
50 41 45
50 42 16
50 43 1
50 44 9
50 45 40
50 46 29
50 47 7
50 48 16
50 49 27
51 0 16
51 1 31
51 2 24
51 3 42
51 4 10
51 5 16
51 6 5
51 7 25
51 8 44
51 9 30
51 10 7
51 11 42
51 12 12
51 13 10
51 14 43
51 15 25
51 16 33
51 17 38
51 18 24
51 19 7
51 20 44
51 21 28
51 22 22
51 23 21
51 24 32
51 25 10
51 26 40
51 27 35
51 28 8
51 29 38
51 30 4
51 31 8
51 32 16
51 33 14
51 34 34
51 35 20
51 36 2
51 37 20
51 38 12
51 39 31
51 40 23
51 41 8
51 42 23
51 43 19
51 44 12
51 45 2
51 46 38
51 47 32
51 48 21
51 49 32
51 50 11
52 0 14
52 1 23
52 2 37
52 3 17
52 4 12
52 5 17
52 6 27
52 7 42
52 8 10
52 9 18
52 10 27
52 11 23
52 12 7
52 13 26
52 14 25
52 15 38
52 16 39
52 17 34
52 18 29
52 19 10
52 20 4
52 21 10
52 22 5
52 23 11
52 24 37
52 25 19
52 26 17
52 27 18
52 28 36
52 29 43
52 30 38
52 31 14
52 32 33
52 33 9
52 34 20
52 35 3
52 36 45
52 37 38
52 38 5
52 39 18
52 40 35
52 41 25
52 42 41
52 43 39
52 44 42
52 45 13
52 46 45
52 47 25
52 48 45
52 49 12
52 50 32
52 51 25
53 0 6
53 1 12
53 2 8
53 3 9
53 4 45
53 5 43
53 6 9
53 7 19
53 8 30
53 9 23
53 10 36
53 11 12
53 12 19
53 13 25
53 14 8
53 15 34
53 16 23
53 17 7
53 18 45
53 19 17
53 20 34
53 21 27
53 22 33
53 23 17
53 24 16
53 25 3
53 26 41
53 27 28
53 28 1
53 29 19
53 30 28
53 31 6
53 32 35
53 33 35
53 34 6
53 35 7
53 36 34
53 37 15
53 38 33
53 39 22
53 40 35
53 41 9
53 42 19
53 43 22
53 44 36
53 45 26
53 46 31
53 47 45
53 48 18
53 49 36
53 50 15
53 51 37
53 52 25
54 0 10
54 1 35
54 2 44
54 3 2
54 4 30
54 5 32
54 6 29
54 7 37
54 8 4
54 9 3
54 10 4
54 11 39
54 12 36
54 13 6
54 14 33
54 15 10
54 16 8
54 17 27
54 18 39
54 19 23
54 20 29
54 21 22
54 22 14
54 23 15
54 24 27
54 25 44
54 26 21
54 27 16
54 28 28
54 29 16
54 30 22
54 31 7
54 32 33
54 33 2
54 34 14
54 35 41
54 36 39
54 37 13
54 38 2
54 39 19
54 40 38
54 41 35
54 42 31
54 43 25
54 44 9
54 45 12
54 46 16
54 47 13
54 48 7
54 49 19
54 50 23
54 51 36
54 52 2
54 53 43
55 0 33
55 1 33
55 2 11
55 3 40
55 4 2
55 5 29
55 6 30
55 7 36
55 8 41
55 9 21
55 10 39
55 11 4
55 12 27
55 13 17
55 14 22
55 15 23
55 16 42
55 17 20
55 18 2
55 19 43
55 20 13
55 21 32
55 22 25
55 23 42
55 24 4
55 25 1
55 26 39
55 27 6
55 28 41
55 29 14
55 30 2
55 31 16
55 32 19
55 33 25
55 34 15
55 35 15
55 36 24
55 37 16
55 38 12
55 39 22
55 40 10
55 41 33
55 42 36
55 43 25
55 44 23
55 45 44
55 46 11
55 47 24
55 48 1
55 49 18
55 50 31
55 51 32
55 52 10
55 53 17
55 54 45
56 0 6
56 1 28
56 2 43
56 3 36
56 4 18
56 5 43
56 6 42
56 7 29
56 8 17
56 9 28
56 10 20
56 11 33
56 12 43
56 13 31
56 14 45
56 15 32
56 16 26
56 17 5
56 18 44
56 19 1
56 20 22
56 21 9
56 22 28
56 23 26
56 24 14
56 25 25
56 26 9
56 27 12
56 28 19
56 29 30
56 30 5
56 31 13
56 32 1
56 33 4
56 34 31
56 35 6
56 36 1
56 37 41
56 38 12
56 39 2
56 40 1
56 41 2
56 42 27
56 43 15
56 44 12
56 45 7
56 46 36
56 47 14
56 48 45
56 49 29
56 50 18
56 51 10
56 52 36
56 53 1
56 54 6
56 55 33
57 0 39
57 1 6
57 2 21
57 3 34
57 4 8
57 5 26
57 6 16
57 7 25
57 8 11
57 9 1
57 10 5
57 11 36
57 12 16
57 13 15
57 14 41
57 15 29
57 16 12
57 17 32
57 18 12
57 19 39
57 20 12
57 21 9
57 22 5
57 23 12
57 24 43
57 25 14
57 26 34
57 27 11
57 28 29
57 29 29
57 30 22
57 31 23
57 32 37
57 33 35
57 34 4
57 35 20
57 36 9
57 37 29
57 38 44
57 39 11
57 40 14
57 41 13
57 42 41
57 43 12
57 44 33
57 45 40
57 46 40
57 47 40
57 48 11
57 49 45
57 50 45
57 51 42
57 52 32
57 53 37
57 54 38
57 55 25
57 56 8
58 0 36
58 1 33
58 2 41
58 3 39
58 4 35
58 5 18
58 6 9
58 7 35
58 8 29
58 9 20
58 10 41
58 11 7
58 12 4
58 13 25
58 14 5
58 15 4
58 16 43
58 17 44
58 18 22
58 19 36
58 20 16
58 21 5
58 22 10
58 23 36
58 24 20
58 25 6
58 26 36
58 27 26
58 28 24
58 29 40
58 30 39
58 31 21
58 32 45
58 33 22
58 34 1
58 35 14
58 36 8
58 37 27
58 38 27
58 39 31
58 40 4
58 41 43
58 42 39
58 43 31
58 44 30
58 45 39
58 46 1
58 47 6
58 48 7
58 49 34
58 50 36
58 51 1
58 52 20
58 53 35
58 54 41
58 55 38
58 56 29
58 57 11
59 0 17
59 1 21
59 2 12
59 3 20
59 4 23
59 5 1
59 6 38
59 7 41
59 8 10
59 9 17
59 10 25
59 11 12
59 12 33
59 13 10
59 14 21
59 15 17
59 16 5
59 17 33
59 18 24
59 19 9
59 20 39
59 21 7
59 22 4
59 23 32
59 24 38
59 25 45
59 26 35
59 27 31
59 28 2
59 29 34
59 30 9
59 31 20
59 32 3
59 33 2
59 34 17
59 35 24
59 36 10
59 37 40
59 38 10
59 39 4
59 40 38
59 41 11
59 42 18
59 43 22
59 44 42
59 45 14
59 46 5
59 47 15
59 48 18
59 49 43
59 50 7
59 51 40
59 52 25
59 53 17
59 54 38
59 55 31
59 56 21
59 57 43
59 58 35
60 0 35
60 1 19
60 2 35
60 3 29
60 4 40
60 5 32
60 6 16
60 7 20
60 8 16
60 9 12
60 10 14
60 11 43
60 12 33
60 13 42
60 14 21
60 15 45
60 16 28
60 17 30
60 18 19
60 19 9
60 20 26
60 21 17
60 22 7
60 23 10
60 24 25
60 25 39
60 26 41
60 27 18
60 28 14
60 29 26
60 30 2
60 31 24
60 32 20
60 33 17
60 34 22
60 35 12
60 36 5
60 37 21
60 38 13
60 39 10
60 40 29
60 41 6
60 42 8
60 43 26
60 44 25
60 45 4
60 46 11
60 47 12
60 48 32
60 49 19
60 50 1
60 51 31
60 52 24
60 53 22
60 54 32
60 55 25
60 56 31
60 57 13
60 58 14
60 59 17
